Grasp exp. instance_n_15_m_5_id_2.lp tipoLifted 0 szPool 1 nIteration 50 alpha 0.8 
Academic license - for non-commercial use only
Read LP format model from file ../input/instancesGenerated/instance_n_15_m_5_id_2.lp
Reading time = 0.00 seconds
: 5 rows, 15 columns, 75 nonzeros
Optimize a model with 5 rows, 15 columns and 75 nonzeros
Variable types: 0 continuous, 15 integer (15 binary)
Coefficient statistics:
  Matrix range     [1e+00, 1e+01]
  Objective range  [1e+00, 1e+01]
  Bounds range     [1e+00, 1e+00]
  RHS range        [4e+01, 5e+01]
Found heuristic solution: objective 36.0000000

Explored 0 nodes (0 simplex iterations) in 0.00 seconds
Thread count was 1 (of 8 available processors)

Solution count 1: 36 
No other solutions better than 0

Solution limit reached
Best objective 3.600000000000e+01, best bound -, gap -
C_1:	 6.00 x_1  = 1.000000 + 6.00 x_2  = 0.000000 + 1.00 x_3  = 0.000000 + 4.00 x_4  = 1.000000 + 5.00 x_5  = 0.101545 + 9.00 x_6  = 0.253863 + 9.00 x_7  = 0.112583 + 2.00 x_8  = 1.000000 + 4.00 x_9  = 0.000000 + 1.00 x_10  = 1.000000 + 6.00 x_11  = 1.000000 + 2.00 x_12  = 0.000000 + 7.00 x_13  = 1.000000 + 8.00 x_14  = 0.024283 + 9.00 x_15  = 1.000000 <= 39.00
C_2:	 4.00 x_1  = 1.000000 + 9.00 x_2  = 0.000000 + 2.00 x_3  = 0.000000 + 7.00 x_4  = 1.000000 + 8.00 x_5  = 0.101545 + 7.00 x_6  = 0.253863 + 3.00 x_7  = 0.112583 + 7.00 x_8  = 1.000000 + 7.00 x_9  = 0.000000 + 10.00 x_10  = 1.000000 + 6.00 x_11  = 1.000000 + 5.00 x_12  = 0.000000 + 2.00 x_13  = 1.000000 + 3.00 x_14  = 0.024283 + 1.00 x_15  = 1.000000 <= 40.00
C_3:	 8.00 x_1  = 1.000000 + 9.00 x_2  = 0.000000 + 8.00 x_3  = 0.000000 + 1.00 x_4  = 1.000000 + 4.00 x_5  = 0.101545 + 2.00 x_6  = 0.253863 + 9.00 x_7  = 0.112583 + 5.00 x_8  = 1.000000 + 5.00 x_9  = 0.000000 + 4.00 x_10  = 1.000000 + 5.00 x_11  = 1.000000 + 3.00 x_12  = 0.000000 + 5.00 x_13  = 1.000000 + 3.00 x_14  = 0.024283 + 10.00 x_15  = 1.000000 <= 40.00
C_4:	 6.00 x_1  = 1.000000 + 7.00 x_2  = 0.000000 + 8.00 x_3  = 0.000000 + 7.00 x_4  = 1.000000 + 3.00 x_5  = 0.101545 + 7.00 x_6  = 0.253863 + 6.00 x_7  = 0.112583 + 7.00 x_8  = 1.000000 + 5.00 x_9  = 0.000000 + 2.00 x_10  = 1.000000 + 9.00 x_11  = 1.000000 + 1.00 x_12  = 0.000000 + 7.00 x_13  = 1.000000 + 10.00 x_14  = 0.024283 + 3.00 x_15  = 1.000000 <= 44.00
C_5:	 9.00 x_1  = 1.000000 + 9.00 x_2  = 0.000000 + 3.00 x_3  = 0.000000 + 7.00 x_4  = 1.000000 + 9.00 x_5  = 0.101545 + 9.00 x_6  = 0.253863 + 10.00 x_7  = 0.112583 + 10.00 x_8  = 1.000000 + 3.00 x_9  = 0.000000 + 7.00 x_10  = 1.000000 + 3.00 x_11  = 1.000000 + 9.00 x_12  = 0.000000 + 9.00 x_13  = 1.000000 + 10.00 x_14  = 0.024283 + 1.00 x_15  = 1.000000 <= 54.00
Solution initial: 64.344371 
Number Constraints Used in Cover:5
GRASP Method!
Number cuts repeat: 0
value: 64.344371
Number Constraints Used in Cover:7
GRASP Method!
Number cuts repeat: 0
value: 64.344371
Number Constraints Used in Cover:8
GRASP Method!
Number cuts repeat: 0
value: 64.344371
Number Constraints Used in Cover:9
GRASP Method!
Number cuts repeat: 0
value: 64.344371
Number Constraints Used in Cover:11
GRASP Method!
Number cuts repeat: 0
value: 64.344371
Number Constraints Used in Cover:13
GRASP Method!
Number cuts repeat: 0
value: 64.344371
Number Constraints Used in Cover:15
GRASP Method!
Number cuts repeat: 0
value: 64.344371
Number Constraints Used in Cover:18
GRASP Method!
Number cuts repeat: 0
value: 64.344371
Number Constraints Used in Cover:21
GRASP Method!
Number cuts repeat: 0
value: 64.344371
Number Constraints Used in Cover:24
GRASP Method!
Number cuts repeat: 0
value: 63.920306
Number Constraints Used in Cover:26
GRASP Method!
Number cuts repeat: 0
value: 63.920306
Number Constraints Used in Cover:27
GRASP Method!
Number cuts repeat: 0
value: 63.920306
Number Constraints Used in Cover:28
GRASP Method!
Number cuts repeat: 0
value: 63.920306
Number Constraints Used in Cover:30
GRASP Method!
Number cuts repeat: 0
value: 63.920306
Number Constraints Used in Cover:32
GRASP Method!
Number cuts repeat: 0
value: 63.920306
Number Constraints Used in Cover:32
GRASP Method!
Number cuts repeat: 0
value: 63.920306
Number Constraints Used in Cover:34
GRASP Method!
Number cuts repeat: 0
value: 63.920306
Number Constraints Used in Cover:36
GRASP Method!
Number cuts repeat: 0
value: 63.920306
Number Constraints Used in Cover:38
GRASP Method!
Number cuts repeat: 0
value: 63.920306
Number Constraints Used in Cover:39
GRASP Method!
Number cuts repeat: 0
value: 63.920306
Number Constraints Used in Cover:41
GRASP Method!
Number cuts repeat: 0
value: 63.920306
Number Constraints Used in Cover:43
GRASP Method!
Number cuts repeat: 0
value: 63.920306
Number Constraints Used in Cover:45
GRASP Method!
Number cuts repeat: 0
value: 63.920306
Number Constraints Used in Cover:48
GRASP Method!
Number cuts repeat: 0
value: 63.920306
Number Constraints Used in Cover:49
GRASP Method!
Number cuts repeat: 0
value: 63.920306
Number Constraints Used in Cover:51
GRASP Method!
Number cuts repeat: 0
value: 63.920306
Number Constraints Used in Cover:52
GRASP Method!
Number cuts repeat: 0
value: 63.920306
Number Constraints Used in Cover:55
GRASP Method!
Number cuts repeat: 0
value: 63.920306
Number Constraints Used in Cover:55
GRASP Method!
Number cuts repeat: 0
value: 63.920306
Number Constraints Used in Cover:57
GRASP Method!
Number cuts repeat: 0
value: 63.920306
Number Constraints Used in Cover:57
GRASP Method!
Number cuts repeat: 0
value: 63.920306
Number Constraints Used in Cover:59
GRASP Method!
Number cuts repeat: 0
value: 63.920306
Number Constraints Used in Cover:60
GRASP Method!
Number cuts repeat: 0
value: 63.920306
Number Constraints Used in Cover:62
GRASP Method!
Number cuts repeat: 0
value: 63.920306
Number Constraints Used in Cover:64
GRASP Method!
Number cuts repeat: 0
value: 63.920306
Number Constraints Used in Cover:65
GRASP Method!
Number cuts repeat: 0
value: 63.920306
Number Constraints Used in Cover:66
GRASP Method!
Number cuts repeat: 0
value: 63.920306
Number Constraints Used in Cover:69
GRASP Method!
Number cuts repeat: 0
value: 63.920306
Number Constraints Used in Cover:71
GRASP Method!
Number cuts repeat: 0
value: 63.920306
Number Constraints Used in Cover:73
GRASP Method!
Number cuts repeat: 0
value: 63.920306
Number Constraints Used in Cover:75
GRASP Method!
Number cuts repeat: 0
value: 63.920306
Number Constraints Used in Cover:76
GRASP Method!
Number cuts repeat: 0
value: 63.920306
Number Constraints Used in Cover:78
GRASP Method!
Number cuts repeat: 0
value: 63.920306
Number Constraints Used in Cover:78
GRASP Method!
Number cuts repeat: 0
value: 63.920306
Number Constraints Used in Cover:80
GRASP Method!
Number cuts repeat: 0
value: 63.920306
Number Constraints Used in Cover:81
GRASP Method!
Number cuts repeat: 0
value: 63.920306
Number Constraints Used in Cover:83
GRASP Method!
Number cuts repeat: 0
value: 63.920306
Number Constraints Used in Cover:84
GRASP Method!
Number cuts repeat: 0
value: 63.920306
Number Constraints Used in Cover:87
GRASP Method!
Number cuts repeat: 0
value: 63.920306
Number Constraints Used in Cover:88
GRASP Method!
Number cuts repeat: 0
value: 63.920306
Number Constraints Used in Cover:89
GRASP Method!
Number cuts repeat: 0
value: 63.920306
Number Constraints Used in Cover:91
GRASP Method!
Number cuts repeat: 0
value: 63.920306
Number Constraints Used in Cover:93
GRASP Method!
Number cuts repeat: 0
value: 63.920306
Number Constraints Used in Cover:96
GRASP Method!
Number cuts repeat: 0
value: 63.920306
Number Constraints Used in Cover:96
GRASP Method!
Number cuts repeat: 0
value: 63.920306
Number Constraints Used in Cover:97
GRASP Method!
Number cuts repeat: 0
value: 63.920306
Number Constraints Used in Cover:100
GRASP Method!
Number cuts repeat: 0
value: 63.920306
Number Constraints Used in Cover:101
GRASP Method!
Number cuts repeat: 0
value: 63.920306
Number Constraints Used in Cover:102
GRASP Method!
Number cuts repeat: 0
value: 63.920306
Number Constraints Used in Cover:104
GRASP Method!
Number cuts repeat: 0
value: 63.920306
Number Constraints Used in Cover:106
GRASP Method!
Number cuts repeat: 0
value: 63.920306
Number Constraints Used in Cover:107
GRASP Method!
Number cuts repeat: 0
value: 63.920306
Number Constraints Used in Cover:109
GRASP Method!
Number cuts repeat: 0
value: 63.920306
Number Constraints Used in Cover:110
GRASP Method!
Number cuts repeat: 0
value: 63.920306
Number Constraints Used in Cover:111
GRASP Method!
Number cuts repeat: 0
value: 63.920306
Number Constraints Used in Cover:113
GRASP Method!
Number cuts repeat: 0
value: 63.920306
Number Constraints Used in Cover:113
GRASP Method!
Number cuts repeat: 0
value: 63.920306
Number Constraints Used in Cover:115
GRASP Method!
Number cuts repeat: 0
value: 63.920306
Number Constraints Used in Cover:117
GRASP Method!
Number cuts repeat: 0
value: 63.920306
Number Constraints Used in Cover:118
GRASP Method!
Number cuts repeat: 0
value: 63.920306
Number Constraints Used in Cover:118
GRASP Method!
Number cuts repeat: 0
value: 63.920306
Number Constraints Used in Cover:119
GRASP Method!
Number cuts repeat: 0
value: 63.920306
Number Constraints Used in Cover:120
GRASP Method!
Number cuts repeat: 0
value: 63.920306
Number Constraints Used in Cover:121
GRASP Method!
Number cuts repeat: 0
value: 63.920306
Number Constraints Used in Cover:122
GRASP Method!
Number cuts repeat: 0
value: 63.920306
Number Constraints Used in Cover:125
GRASP Method!
Number cuts repeat: 0
value: 63.920306
Number Constraints Used in Cover:126
GRASP Method!
Number cuts repeat: 0
value: 63.920306
Number Constraints Used in Cover:127
GRASP Method!
Number cuts repeat: 0
value: 63.920306
Number Constraints Used in Cover:129
GRASP Method!
Number cuts repeat: 0
value: 63.920306
Number Constraints Used in Cover:129
GRASP Method!
Number cuts repeat: 0
value: 63.920306
Number Constraints Used in Cover:131
GRASP Method!
Number cuts repeat: 0
value: 63.920306
Number Constraints Used in Cover:132
GRASP Method!
Number cuts repeat: 0
value: 63.920306
Number Constraints Used in Cover:132
GRASP Method!
Number cuts repeat: 0
value: 63.920306
Number Constraints Used in Cover:132
GRASP Method!
Number cuts repeat: 0
value: 63.920306
Number Constraints Used in Cover:132
GRASP Method!
Number cuts repeat: 0
value: 63.789567
Number Constraints Used in Cover:133
GRASP Method!
Number cuts repeat: 0
value: 63.789567
Number Constraints Used in Cover:134
GRASP Method!
Number cuts repeat: 0
value: 63.789567
Number Constraints Used in Cover:135
GRASP Method!
Number cuts repeat: 0
value: 63.789567
Number Constraints Used in Cover:137
GRASP Method!
Number cuts repeat: 0
value: 63.789567
Number Constraints Used in Cover:139
GRASP Method!
Number cuts repeat: 0
value: 63.789567
Number Constraints Used in Cover:143
GRASP Method!
Number cuts repeat: 0
value: 63.789567
Number Constraints Used in Cover:145
GRASP Method!
Number cuts repeat: 0
value: 63.789567
Number Constraints Used in Cover:147
GRASP Method!
Number cuts repeat: 0
value: 63.789567
Number Constraints Used in Cover:149
GRASP Method!
Number cuts repeat: 0
value: 63.789567
Number Constraints Used in Cover:151
GRASP Method!
Number cuts repeat: 0
value: 63.789567
Number Constraints Used in Cover:152
GRASP Method!
Number cuts repeat: 0
value: 63.789567
Number Constraints Used in Cover:153
GRASP Method!
Number cuts repeat: 0
value: 63.789567
Number Constraints Used in Cover:156
GRASP Method!
Number cuts repeat: 0
value: 63.789567
Number Constraints Used in Cover:159
GRASP Method!
Number cuts repeat: 0
value: 63.789567
Number Constraints Used in Cover:161
GRASP Method!
Number cuts repeat: 0
value: 63.789567
Number Constraints Used in Cover:162
GRASP Method!
Number cuts repeat: 0
value: 63.789567
Number Constraints Used in Cover:164
GRASP Method!
Number cuts repeat: 0
value: 63.789567
Number Constraints Used in Cover:165
GRASP Method!
Number cuts repeat: 0
value: 63.789567
Number Constraints Used in Cover:168
GRASP Method!
Number cuts repeat: 0
value: 63.789567
Number Constraints Used in Cover:170
GRASP Method!
Number cuts repeat: 0
value: 63.789567
Number Constraints Used in Cover:174
GRASP Method!
Number cuts repeat: 0
value: 63.789567
Number Constraints Used in Cover:179
GRASP Method!
Number cuts repeat: 0
value: 63.789567
Number Constraints Used in Cover:180
GRASP Method!
Number cuts repeat: 0
value: 63.789567
Number Constraints Used in Cover:182
GRASP Method!
Number cuts repeat: 0
value: 63.789567
Number Constraints Used in Cover:186
GRASP Method!
Number cuts repeat: 0
value: 63.789567
Number Constraints Used in Cover:191
GRASP Method!
Number cuts repeat: 0
value: 63.789567
Number Constraints Used in Cover:195
GRASP Method!
Number cuts repeat: 0
value: 63.789567
Number Constraints Used in Cover:199
GRASP Method!
Number cuts repeat: 0
value: 63.789567
Number Constraints Used in Cover:204
GRASP Method!
Number cuts repeat: 0
value: 63.789567
Number Constraints Used in Cover:207
GRASP Method!
Number cuts repeat: 0
value: 63.789567
Number Constraints Used in Cover:209
GRASP Method!
Number cuts repeat: 0
value: 63.789567
Number Constraints Used in Cover:215
GRASP Method!
Number cuts repeat: 0
value: 63.789567
Number Constraints Used in Cover:218
GRASP Method!
Number cuts repeat: 0
value: 63.789567
Number Constraints Used in Cover:221
GRASP Method!
Number cuts repeat: 0
value: 63.789567
Number Constraints Used in Cover:226
GRASP Method!
Number cuts repeat: 0
value: 63.789567
Number Constraints Used in Cover:231
GRASP Method!
Number cuts repeat: 0
value: 63.789567
Number Constraints Used in Cover:236
GRASP Method!
Number cuts repeat: 0
value: 63.789567
Number Constraints Used in Cover:242
GRASP Method!
Number cuts repeat: 0
value: 63.789567
Number Constraints Used in Cover:245
GRASP Method!
Number cuts repeat: 0
value: 63.789567
Number Constraints Used in Cover:249
GRASP Method!
Number cuts repeat: 0
value: 63.789567
Number Constraints Used in Cover:252
GRASP Method!
Number cuts repeat: 0
value: 63.789567
Number Constraints Used in Cover:256
GRASP Method!
Number cuts repeat: 0
value: 63.789567
Number Constraints Used in Cover:258
GRASP Method!
Number cuts repeat: 0
value: 63.789567
Number Constraints Used in Cover:261
GRASP Method!
Number cuts repeat: 0
value: 63.789567
Number Constraints Used in Cover:265
GRASP Method!
Number cuts repeat: 0
value: 63.789567
Number Constraints Used in Cover:268
GRASP Method!
Number cuts repeat: 0
value: 63.789567
Number Constraints Used in Cover:270
GRASP Method!
Number cuts repeat: 0
value: 63.789567
Number Constraints Used in Cover:272
GRASP Method!
Number cuts repeat: 0
value: 63.789567
Number Constraints Used in Cover:274
GRASP Method!
Number cuts repeat: 0
value: 63.789567
Number Constraints Used in Cover:278
GRASP Method!
Number cuts repeat: 0
value: 63.789567
Number Constraints Used in Cover:282
GRASP Method!
Number cuts repeat: 0
value: 63.789567
Number Constraints Used in Cover:286
GRASP Method!
Number cuts repeat: 0
value: 63.789567
Number Constraints Used in Cover:291
GRASP Method!
Number cuts repeat: 0
value: 63.789567
Number Constraints Used in Cover:295
GRASP Method!
Number cuts repeat: 0
value: 63.789567
Number Constraints Used in Cover:299
GRASP Method!
Number cuts repeat: 0
value: 63.789567
Number Constraints Used in Cover:300
GRASP Method!
Number cuts repeat: 0
value: 63.789567
Number Constraints Used in Cover:302
GRASP Method!
Number cuts repeat: 0
value: 63.789567
Number Constraints Used in Cover:305
GRASP Method!
Number cuts repeat: 0
value: 63.789567
Number Constraints Used in Cover:307
GRASP Method!
Number cuts repeat: 0
value: 63.789567
Number Constraints Used in Cover:310
GRASP Method!
Number cuts repeat: 0
value: 63.789567
Number Constraints Used in Cover:313
GRASP Method!
Number cuts repeat: 0
value: 63.789567
Number Constraints Used in Cover:317
GRASP Method!
Number cuts repeat: 0
value: 63.789567
Number Constraints Used in Cover:318
GRASP Method!
Number cuts repeat: 0
value: 63.789567
Number Constraints Used in Cover:321
GRASP Method!
Number cuts repeat: 0
value: 63.789567
Number Constraints Used in Cover:323
GRASP Method!
Number cuts repeat: 0
value: 63.789567
Number Constraints Used in Cover:326
GRASP Method!
Number cuts repeat: 0
value: 63.789567
Number Constraints Used in Cover:328
GRASP Method!
Number cuts repeat: 0
value: 63.789567
Number Constraints Used in Cover:332
GRASP Method!
Number cuts repeat: 0
value: 63.789567
Number Constraints Used in Cover:334
GRASP Method!
Number cuts repeat: 0
value: 63.789567
Number Constraints Used in Cover:336
GRASP Method!
Number cuts repeat: 0
value: 63.789567
Number Constraints Used in Cover:340
GRASP Method!
Number cuts repeat: 0
value: 63.774890
Number Constraints Used in Cover:342
GRASP Method!
Number cuts repeat: 0
value: 63.774890
Number Constraints Used in Cover:346
GRASP Method!
Number cuts repeat: 0
value: 63.774890
Number Constraints Used in Cover:348
GRASP Method!
Number cuts repeat: 0
value: 63.774890
Number Constraints Used in Cover:351
GRASP Method!
Number cuts repeat: 0
value: 63.774890
Number Constraints Used in Cover:351
GRASP Method!
Number cuts repeat: 0
value: 63.774890
Number Constraints Used in Cover:355
GRASP Method!
Number cuts repeat: 0
value: 63.774890
Number Constraints Used in Cover:356
GRASP Method!
Number cuts repeat: 0
value: 63.774890
Number Constraints Used in Cover:360
GRASP Method!
Number cuts repeat: 0
value: 63.774890
Number Constraints Used in Cover:361
GRASP Method!
Number cuts repeat: 0
value: 63.774890
Number Constraints Used in Cover:364
GRASP Method!
Number cuts repeat: 0
value: 63.774890
Number Constraints Used in Cover:365
GRASP Method!
Number cuts repeat: 0
value: 63.774890
Number Constraints Used in Cover:367
GRASP Method!
Number cuts repeat: 0
value: 63.774890
Number Constraints Used in Cover:369
GRASP Method!
Number cuts repeat: 0
value: 63.774890
Number Constraints Used in Cover:370
GRASP Method!
Number cuts repeat: 0
value: 63.774890
Number Constraints Used in Cover:372
GRASP Method!
Number cuts repeat: 0
value: 63.774890
Number Constraints Used in Cover:375
GRASP Method!
Number cuts repeat: 0
value: 63.774890
Number Constraints Used in Cover:378
GRASP Method!
Number cuts repeat: 0
value: 63.774890
Number Constraints Used in Cover:381
GRASP Method!
Number cuts repeat: 0
value: 63.774890
Number Constraints Used in Cover:386
GRASP Method!
Number cuts repeat: 0
value: 63.774890
Number Constraints Used in Cover:387
GRASP Method!
Number cuts repeat: 0
value: 63.774890
Number Constraints Used in Cover:388
GRASP Method!
Number cuts repeat: 0
value: 63.774890
Number Constraints Used in Cover:390
GRASP Method!
Number cuts repeat: 0
value: 63.774890
Number Constraints Used in Cover:391
GRASP Method!
Number cuts repeat: 0
value: 63.774890
Number Constraints Used in Cover:395
GRASP Method!
Number cuts repeat: 0
value: 63.774890
Number Constraints Used in Cover:396
GRASP Method!
Number cuts repeat: 0
value: 63.774890
Number Constraints Used in Cover:398
GRASP Method!
Number cuts repeat: 0
value: 63.774890
Number Constraints Used in Cover:399
GRASP Method!
Number cuts repeat: 0
value: 63.774890
Number Constraints Used in Cover:401
GRASP Method!
Number cuts repeat: 0
value: 63.774890
Number Constraints Used in Cover:403
GRASP Method!
Number cuts repeat: 0
value: 63.774890
Number Constraints Used in Cover:405
GRASP Method!
Number cuts repeat: 0
value: 63.774890
Number Constraints Used in Cover:407
GRASP Method!
Number cuts repeat: 0
value: 63.774890
Number Constraints Used in Cover:408
GRASP Method!
Number cuts repeat: 0
value: 63.774890
Number Constraints Used in Cover:411
GRASP Method!
Number cuts repeat: 0
value: 63.774890
Number Constraints Used in Cover:412
GRASP Method!
Number cuts repeat: 0
value: 63.774890
Number Constraints Used in Cover:413
GRASP Method!
Number cuts repeat: 0
value: 63.774890
Number Constraints Used in Cover:413
GRASP Method!
Number cuts repeat: 0
value: 63.774890
Number Constraints Used in Cover:416
GRASP Method!
Number cuts repeat: 0
value: 63.774890
Number Constraints Used in Cover:416
GRASP Method!
Number cuts repeat: 0
value: 63.774890
Number Constraints Used in Cover:417
GRASP Method!
Number cuts repeat: 0
value: 63.774890
Number Constraints Used in Cover:419
GRASP Method!
Number cuts repeat: 0
value: 63.774890
Number Constraints Used in Cover:422
GRASP Method!
Number cuts repeat: 0
value: 63.774890
Number Constraints Used in Cover:427
GRASP Method!
Number cuts repeat: 0
value: 63.774890
Number Constraints Used in Cover:429
GRASP Method!
Number cuts repeat: 0
value: 63.774890
Number Constraints Used in Cover:431
GRASP Method!
Number cuts repeat: 0
value: 63.774890
Number Constraints Used in Cover:432
GRASP Method!
Number cuts repeat: 0
value: 63.774890
Number Constraints Used in Cover:435
GRASP Method!
Number cuts repeat: 0
value: 63.774890
Number Constraints Used in Cover:436
GRASP Method!
Number cuts repeat: 0
value: 63.774890
Number Constraints Used in Cover:436
GRASP Method!
Number cuts repeat: 0
value: 63.774890
Number Constraints Used in Cover:438
GRASP Method!
Number cuts repeat: 0
value: 63.774890
Number Constraints Used in Cover:438
GRASP Method!
Number cuts repeat: 0
value: 63.774890
Number Constraints Used in Cover:441
GRASP Method!
Number cuts repeat: 0
value: 63.774890
Number Constraints Used in Cover:441
GRASP Method!
Number cuts repeat: 0
value: 63.774890
Number Constraints Used in Cover:442
GRASP Method!
Number cuts repeat: 0
value: 63.774890
Number Constraints Used in Cover:445
GRASP Method!
Number cuts repeat: 0
value: 63.774890
Number Constraints Used in Cover:446
GRASP Method!
Number cuts repeat: 0
value: 63.774890
Number Constraints Used in Cover:447
GRASP Method!
Number cuts repeat: 0
value: 63.774890
Number Constraints Used in Cover:449
GRASP Method!
Number cuts repeat: 0
value: 63.774890
Number Constraints Used in Cover:450
GRASP Method!
Number cuts repeat: 0
value: 63.774890
Number Constraints Used in Cover:452
GRASP Method!
Number cuts repeat: 0
value: 63.774890
Number Constraints Used in Cover:453
GRASP Method!
Number cuts repeat: 0
value: 63.774890
Number Constraints Used in Cover:455
GRASP Method!
Number cuts repeat: 0
value: 63.774890
Number Constraints Used in Cover:456
GRASP Method!
Number cuts repeat: 0
value: 63.774890
Number Constraints Used in Cover:457
GRASP Method!
Number cuts repeat: 0
value: 63.774890
Number Constraints Used in Cover:458
GRASP Method!
Number cuts repeat: 0
value: 63.774890
Number Constraints Used in Cover:460
GRASP Method!
Number cuts repeat: 0
value: 63.774890
Number Constraints Used in Cover:462
GRASP Method!
Number cuts repeat: 0
value: 63.774890
Number Constraints Used in Cover:464
GRASP Method!
Number cuts repeat: 0
value: 63.774890
Number Constraints Used in Cover:466
GRASP Method!
Number cuts repeat: 0
value: 63.774890
Number Constraints Used in Cover:469
GRASP Method!
Number cuts repeat: 0
value: 63.774890
Number Constraints Used in Cover:471
GRASP Method!
Number cuts repeat: 0
value: 63.774890
Number Constraints Used in Cover:472
GRASP Method!
Number cuts repeat: 0
value: 63.774890
Number Constraints Used in Cover:474
GRASP Method!
Number cuts repeat: 0
value: 63.774890
Number Constraints Used in Cover:476
GRASP Method!
Number cuts repeat: 0
value: 63.774890
Number Constraints Used in Cover:479
GRASP Method!
Number cuts repeat: 0
value: 63.774890
Number Constraints Used in Cover:482
GRASP Method!
Number cuts repeat: 0
value: 63.774890
Number Constraints Used in Cover:483
GRASP Method!
Number cuts repeat: 0
value: 63.774890
Number Constraints Used in Cover:484
GRASP Method!
Number cuts repeat: 0
value: 63.774890
Number Constraints Used in Cover:487
GRASP Method!
Number cuts repeat: 0
value: 63.774890
Number Constraints Used in Cover:488
GRASP Method!
Number cuts repeat: 0
value: 63.774890
Number Constraints Used in Cover:489
GRASP Method!
Number cuts repeat: 0
value: 63.774890
Number Constraints Used in Cover:491
GRASP Method!
Number cuts repeat: 0
value: 63.774890
Number Constraints Used in Cover:492
GRASP Method!
Number cuts repeat: 0
value: 63.774890
Number Constraints Used in Cover:494
GRASP Method!
Number cuts repeat: 0
value: 63.774890
Number Constraints Used in Cover:495
GRASP Method!
Number cuts repeat: 0
value: 63.774890
Number Constraints Used in Cover:499
GRASP Method!
Number cuts repeat: 0
value: 63.774890
Number Constraints Used in Cover:500
GRASP Method!
Number cuts repeat: 0
value: 63.774890
Number Constraints Used in Cover:502
GRASP Method!
Number cuts repeat: 0
value: 63.774890
Number Constraints Used in Cover:504
GRASP Method!
Number cuts repeat: 0
value: 63.774890
Number Cuts Final: 500
